maxPrice = 22000;
maxStops = 2;
maxStopsDuration = 60;
maxTotalDuration = 500;
allowAerolines = [3,5,6];
allowIntermediaries = true;
%%Cuando no tenga restriccion de horario, podria ser [|0,0|][|23,59|]
timeWindowStart = [|6,0|14,15|];
timeWindowEnd = [|12,0|16,30|];
minScoreFlights = 4;
minScoreLodging = 4;
beedrooms = 2;
beds = 2;
bathrooms = 1;
isSuperHost = false;
features = [2,4,5,7];
/* flightsId = [10597-2210121952--32115-1-13949-2210122309,10597-2210121528--32407-1-13949-2210122020,10597-2210121454--32115-0-13949-2210121546,10597-2210120808--32115-1-13949-2210121121,
10597-2210122116--32540-0-13949-2210122209,10597-2210120534--32540-1-13949-2210121013,10597-2210121139--32540-1-13949-2210121500,10597-2210120453--32407-1-13949-2210120847,
10597-2210121125--32115-2-13949-2210121757,10597-2210122114--32540-2-13949-2210131414,10597-2210120959--32540-1-13949-2210121410,10597-2210121759--32540-1-13949-2210130846,
10597-2210122240--32115-1-13949-2210130701,10597-2210120624--32115-2-13949-2210121707,10597-2210120718--32115-2-13949-2210122206,10597-2210121706--32115-2-13949-2210122244,
10597-2210121729--32540-1-13949-2210122220,10597-2210120526--32115-2-13949-2210122206,10597-2210121844--31691-0-13949-2210121940,10597-2210121706--32115-1-13949-2210121939,
10597-2210120630--31691-0-13949-2210120724,10597-2210121706--32115-2-13949-2210130147,10597-2210121253--32115-2-13949-2210121903,10597-2210122039--32115-1-13949-2210122358,
10597-2210121209--32540-1-13949-2210122220,10597-2210120529--32540-1-13949-2210120938,10597-2210121331--32540-1-13949-2210122150,10597-2210122004--32540-1-13949-2210122345,
10597-2210121711--32115-0-13949-2210121803,10597-2210120713--32540-1-13949-2210121057,10597-2210121904--32115-0-13949-2210121956,10597-2210121804--32540-0-13949-2210121857,
10597-2210121807--32115-2-13949-2210122309,10597-2210121509--32115-1-13949-2210121757,10597-2210120802--32540-1-13949-2210121158,10597-2210121253--32115-2-13949-2210122206,
10597-2210121050--32115-1-13949-2210121453,10597-2210120854--32540-1-13949-2210121650,10597-2210122127--32115-1-13949-2210130701,10597-2210120529--32540-2-13949-2210121530,
10597-2210120853--32115-1-13949-2210121249,10597-2210120854--32540-1-13949-2210121250,10597-2210121028--32540-1-13949-2210122025,10597-2210120718--32115-1-13949-2210121026,
10597-2210121050--32115-2-13949-2210122206,10597-2210120853--32115-2-13949-2210121432,10597-2210122240--32115-1-13949-2210130755,10597-2210121914--32540-1-13949-2210122220,
10597-2210120515--32115-2-13949-2210121026,10597-2210121028--32540-2-13949-2210121639,10597-2210121210--32540-1-13949-2210121530,10597-2210121444--32540-1-13949-2210121830,
10597-2210120713--32540-1-13949-2210121910,10597-2210121914--32540-2-13949-2210130846,10597-2210121614--32540-1-13949-2210122025,10597-2210120526--32115-1-13949-2210120931,
10597-2210121819--32540-2-13949-2210130846,10597-2210120621--32540-0-13949-2210120714,10597-2210121558--32115-2-13949-2210122048,10597-2210120529--32540-2-13949-2210121158,
10597-2210121706--32115-2-13949-2210122206,10597-2210121248--32407-1-13949-2210121715,10597-2210121558--32115-2-13949-2210122206,10597-2210121509--32115-2-13949-2210122358,
10597-2210120614--32540-2-13949-2210121530,10597-2210120613--32115-0-13949-2210120705,10597-2210120614--32540-1-13949-2210120938,10597-2210121433--32540-0-13949-2210121526,
10597-2210122127--32115-1-13949-2210130755,10597-2210121125--32115-1-13949-2210121707,10597-2210120526--32115-2-13949-2210121041,10597-2210120659--32407-1-13949-2210121045,
10597-2210121210--32540-2-13949-2210121830,10597-2210120515--32115-2-13949-2210121121,10597-2210120812--32540-0-13949-2210120905,10597-2210121352--32540-2-13949-2210122220,
10597-2210120515--32115-1-13949-2210121041,10597-2210120529--32540-1-13949-2210121143,10597-2210121331--32540-1-13949-2210121650,10597-2210120542--31691-1-13949-2210121313,
10597-2210120854--32540-2-13949-2210121414,10597-2210121706--32115-1-13949-2210122150,10597-2210121444--32540-1-13949-2210122150,10597-2210121544--32540-1-13949-2210121910,
10597-2210120959--32540-1-13949-2210121315,10597-2210120940--32115-2-13949-2210121453,10597-2210121028--32540-1-13949-2210121410,10597-2210121819--32540-1-13949-2210122150,
10597-2210121759--32540-2-13949-2210122345,10597-2210120947--32540-0-13949-2210121040,10597-2210121253--32115-1-13949-2210121657,10597-2210122114--32540-1-13949-2210130559,
10597-2210122004--32540-1-13949-2210130559,10597-2210120853--32115-2-13949-2210121354,10597-2210121352--32540-2-13949-2210121910,10597-2210120624--32115-1-13949-2210120931,
10597-2210121558--32115-1-13949-2210121832,10597-2210121641--32540-1-13949-2210121959]; */
flightsDuration = [197,292,52,193,53,279,201,234,392,1020,
251,887,501,643,888,338,291,1000,56,153,
54,521,370,199,611,249,499,221,52,224,
52,53,302,168,236,553,243,476,574,601,
236,236,597,188,676,339,555,186,311,371,
200,226,717,812,251,245,867,53,290,389,
300,267,368,529,556,52,204,53,628,342,
315,226,380,366,53,508,326,374,199,451,
320,284,426,206,196,313,222,211,346,53,
244,525,595,301,318,187,154,198];
flightsStops = [1,1,0,1,0,1,1,1,2,2,
1,1,1,2,2,2,1,2,0,1,
0,2,2,1,1,1,1,1,0,1,
0,0,2,1,1,2,1,1,1,2,
1,1,1,1,2,2,1,1,2,2,
1,1,1,2,1,1,2,0,2,2,
2,1,2,2,2,0,1,0,1,1,
2,1,2,2,0,2,1,1,1,1,
2,1,1,1,1,2,1,1,2,0,
1,1,1,2,2,1,1,1];
flightsSegmentsDepartures = [||2022,10,12,19,52|2022,10,12,22,14|0,0,0,0,0|,
|2022,10,12,15,28|2022,10,12,18,55|0,0,0,0,0|,
|2022,10,12,14,54|0,0,0,0,0|0,0,0,0,0|,
|2022,10,12,8,8|2022,10,12,10,26|0,0,0,0,0|,
|2022,10,12,21,16|0,0,0,0,0|0,0,0,0,0|,
|2022,10,12,5,34|2022,10,12,8,58|0,0,0,0,0|,
|2022,10,12,11,39|2022,10,12,14,0|0,0,0,0,0|,
|2022,10,12,4,53|2022,10,12,7,32|0,0,0,0,0|,
|2022,10,12,11,25|2022,10,12,14,0|2022,10,12,17,2|,
|2022,10,12,21,14|2022,10,13,6,0|2022,10,13,13,18|,
|2022,10,12,9,59|2022,10,12,13,10|0,0,0,0,0|,
|2022,10,12,17,59|2022,10,13,7,50|0,0,0,0,0|,
|2022,10,12,22,40|2022,10,13,6,6|0,0,0,0,0|,
|2022,10,12,6,24|2022,10,12,8,13|2022,10,12,15,22|,
|2022,10,12,7,18|2022,10,12,13,41|2022,10,12,21,12|,
|2022,10,12,17,6|2022,10,12,20,19|2022,10,12,21,52|,
|2022,10,12,17,29|2022,10,12,21,20|0,0,0,0,0|,
|2022,10,12,5,26|2022,10,12,13,41|2022,10,12,21,12|,
|2022,10,12,18,44|0,0,0,0,0|0,0,0,0,0|,
|2022,10,12,17,6|2022,10,12,18,44|0,0,0,0,0|,
|2022,10,12,6,30|0,0,0,0,0|0,0,0,0,0|,
|2022,10,12,17,6|2022,10,12,20,10|2022,10,13,0,2|,
|2022,10,12,12,53|2022,10,12,15,16|2022,10,12,17,52|,
|2022,10,12,20,39|2022,10,12,22,46|0,0,0,0,0|,
|2022,10,12,12,9|2022,10,12,21,20|0,0,0,0,0|,
|2022,10,12,5,29|2022,10,12,8,35|0,0,0,0,0|,
|2022,10,12,13,31|2022,10,12,20,50|0,0,0,0,0|,
|2022,10,12,20,4|2022,10,12,22,45|0,0,0,0,0|,
|2022,10,12,17,11|0,0,0,0,0|0,0,0,0,0|,
|2022,10,12,7,13|2022,10,12,9,55|0,0,0,0,0|,
|2022,10,12,19,4|0,0,0,0,0|0,0,0,0,0|,
|2022,10,12,18,4|0,0,0,0,0|0,0,0,0,0|,
|2022,10,12,18,7|2022,10,12,20,7|2022,10,12,22,14|,
|2022,10,12,15,9|2022,10,12,17,2|0,0,0,0,0|,
|2022,10,12,8,2|2022,10,12,10,44|0,0,0,0,0|,
|2022,10,12,12,53|2022,10,12,15,50|2022,10,12,21,12|,
|2022,10,12,10,50|2022,10,12,13,58|0,0,0,0,0|,
|2022,10,12,8,54|2022,10,12,15,50|0,0,0,0,0|,
|2022,10,12,21,27|2022,10,13,6,6|0,0,0,0,0|,
|2022,10,12,5,29|2022,10,12,9,5|2022,10,12,14,26|,
|2022,10,12,8,53|2022,10,12,11,54|0,0,0,0,0|,
|2022,10,12,8,54|2022,10,12,11,49|0,0,0,0,0|,
|2022,10,12,10,28|2022,10,12,19,25|0,0,0,0,0|,
|2022,10,12,7,18|2022,10,12,9,31|0,0,0,0,0|,
|2022,10,12,10,50|2022,10,12,15,50|2022,10,12,21,12|,
|2022,10,12,8,53|2022,10,12,11,18|2022,10,12,13,20|,
|2022,10,12,22,40|2022,10,13,7,0|0,0,0,0,0|,
|2022,10,12,19,14|2022,10,12,21,20|0,0,0,0,0|,
|2022,10,12,5,15|2022,10,12,7,10|2022,10,12,9,31|,
|2022,10,12,10,28|2022,10,12,12,35|2022,10,12,15,26|,
|2022,10,12,12,10|2022,10,12,14,26|0,0,0,0,0|,
|2022,10,12,14,44|2022,10,12,17,30|0,0,0,0,0|,
|2022,10,12,7,13|2022,10,12,18,10|0,0,0,0,0|,
|2022,10,12,19,14|2022,10,12,22,0|2022,10,13,7,50|,
|2022,10,12,16,14|2022,10,12,19,25|0,0,0,0,0|,
|2022,10,12,5,26|2022,10,12,8,36|0,0,0,0,0|,
|2022,10,12,18,19|2022,10,12,22,0|2022,10,13,7,50|,
|2022,10,12,6,21|0,0,0,0,0|0,0,0,0,0|,
|2022,10,12,15,58|2022,10,12,18,0|2022,10,12,19,43|,
|2022,10,12,5,29|2022,10,12,7,40|2022,10,12,10,44|,
|2022,10,12,17,6|2022,10,12,19,23|2022,10,12,21,12|,
|2022,10,12,12,48|2022,10,12,15,57|0,0,0,0,0|,
|2022,10,12,15,58|2022,10,12,19,23|2022,10,12,21,12|,
|2022,10,12,15,9|2022,10,12,18,26|2022,10,12,22,46|,
|2022,10,12,6,14|2022,10,12,9,5|2022,10,12,14,26|,
|2022,10,12,6,13|0,0,0,0,0|0,0,0,0,0|,
|2022,10,12,6,14|2022,10,12,8,35|0,0,0,0,0|,
|2022,10,12,14,33|0,0,0,0,0|0,0,0,0,0|,
|2022,10,12,21,27|2022,10,13,7,0|0,0,0,0,0|,
|2022,10,12,11,25|2022,10,12,15,22|0,0,0,0,0|,
|2022,10,12,5,26|2022,10,12,7,30|2022,10,12,9,32|,
|2022,10,12,6,59|2022,10,12,9,20|0,0,0,0,0|,
|2022,10,12,12,10|2022,10,12,14,1|2022,10,12,17,30|,
|2022,10,12,5,15|2022,10,12,7,10|2022,10,12,10,26|,
|2022,10,12,8,12|0,0,0,0,0|0,0,0,0,0|,
|2022,10,12,13,52|2022,10,12,15,32|2022,10,12,21,20|,
|2022,10,12,5,15|2022,10,12,9,32|0,0,0,0,0|,
|2022,10,12,5,29|2022,10,12,10,40|0,0,0,0,0|,
|2022,10,12,13,31|2022,10,12,15,50|0,0,0,0,0|,
|2022,10,12,5,42|2022,10,12,12,15|0,0,0,0,0|,
|2022,10,12,8,54|2022,10,12,11,2|2022,10,12,13,18|,
|2022,10,12,17,6|2022,10,12,20,55|0,0,0,0,0|,
|2022,10,12,14,44|2022,10,12,20,50|0,0,0,0,0|,
|2022,10,12,15,44|2022,10,12,18,10|0,0,0,0,0|,
|2022,10,12,9,59|2022,10,12,12,15|0,0,0,0,0|,
|2022,10,12,9,40|2022,10,12,11,2|2022,10,12,13,58|,
|2022,10,12,10,28|2022,10,12,13,10|0,0,0,0,0|,
|2022,10,12,18,19|2022,10,12,20,500|0,0,0,0,0|,
|2022,10,12,17,59|2022,10,12,20,0|2022,10,12,22,45|,
|2022,10,12,9,47|0,0,0,0,0|0,0,0,0,0|,
|2022,10,12,12,53|2022,10,12,16,2|0,0,0,0,0|,
|2022,10,12,21,14|2022,10,13,5,0|0,0,0,0,0|,
|2022,10,12,20,4|2022,10,13,5,0|0,0,0,0,0|,
|2022,10,12,8,53|2022,10,12,10,40|2022,10,12,12,42|,
|2022,10,12,13,52|2022,10,12,15,32|2022,10,12,18,10|,
|2022,10,12,6,24|2022,10,12,8,36|0,0,0,0,0|,
|2022,10,12,15,58|2022,10,12,17,37|0,0,0,0,0|,
|2022,10,12,16,41|2022,10,12,18,54|0,0,0,0,0||];
flightsSegmentsArrivals = [||2022,10,12,20,50|2022,10,12,23,9|0,0,0,0,0|,
|2022,10,12,16,57|2022,10,12,20,20|0,0,0,0,0|,
|2022,10,12,15,46|0,0,0,0,0|0,0,0,0,0|,
|2022,10,12,9,6|2022,10,12,11,21|0,0,0,0,0|,
|2022,10,12,22,9|0,0,0,0,0|0,0,0,0,0|,
|2022,10,12,7,7|2022,10,12,10,13|0,0,0,0,0|,
|2022,10,12,12,40|2022,10,12,15,0|0,0,0,0,0|,
|2022,10,12,6,22|2022,10,12,8,47|0,0,0,0,0|,
|2022,10,12,13,18|2022,10,12,15,59|2022,10,12,17,57|,
|2022,10,12,22,15|2022,10,13,7,18|2022,10,13,14,14|,
|2022,10,12,11,0|2022,10,12,14,10|0,0,0,0,0|,
|2022,10,12,19,19|2022,10,13,8,46|0,0,0,0,0|,
|2022,10,12,23,38|2022,10,13,7,1|0,0,0,0,0|,
|2022,10,12,7,22|2022,10,12,10,14|2022,10,12,17,7|,
|2022,10,12,8,16|2022,10,12,14,58|2022,10,12,22,6|,
|2022,10,12,18,4|2022,10,12,21,20|2022,10,12,22,44|,
|2022,10,12,18,30|2022,10,12,22,20|0,0,0,0,0|,
|2022,10,12,6,24|2022,10,12,14,58|2022,10,12,22,6|,
|2022,10,12,19,40|0,0,0,0,0|0,0,0,0,0|,
|2022,10,12,18,4|2022,10,12,19,39|0,0,0,0,0|,
|2022,10,12,7,24|0,0,0,0,0|0,0,0,0,0|,
|2022,10,12,18,4|2022,10,12,22,14|2022,10,13,1,47|,
|2022,10,12,13,51|2022,10,12,16,42|2022,10,12,19,3|,
|2022,10,12,22,13|2022,10,12,23,58|0,0,0,0,0|,
|2022,10,12,13,10|2022,10,12,22,20|0,0,0,0,0|,
|2022,10,12,6,30|2022,10,12,9,38|0,0,0,0,0|,
|2022,10,12,14,32|2022,10,12,21,50|0,0,0,0,0|,
|2022,10,12,21,5|2022,10,12,23,45|0,0,0,0,0|,
|2022,10,12,18,3|0,0,0,0,0|0,0,0,0,0|,
|2022,10,12,8,14|2022,10,12,10,57|0,0,0,0,0|,
|2022,10,12,19,56|0,0,0,0,0|0,0,0,0,0|,
|2022,10,12,18,57|0,0,0,0,0|0,0,0,0,0|,
|2022,10,12,19,30|2022,10,12,21,32|2022,10,12,23,9|,
|2022,10,12,16,7|2022,10,12,17,57|0,0,0,0,0|,
|2022,10,12,9,30|2022,10,12,11,58|0,0,0,0,0|,
|2022,10,12,13,51|2022,10,12,17,7|2022,10,12,22,6|,
|2022,10,12,11,48|2022,10,12,14,53|0,0,0,0,0|,
|2022,10,12,9,55|2022,10,12,16,50|0,0,0,0,0|,
|2022,10,12,22,25|2022,10,13,7,1|0,0,0,0,0|,
|2022,10,12,6,30|2022,10,12,10,21|2022,10,12,15,30|,
|2022,10,12,9,51|2022,10,12,12,49|0,0,0,0,0|,
|2022,10,12,9,55|2022,10,12,12,50|0,0,0,0,0|,
|2022,10,12,11,29|2022,10,12,20,25|0,0,0,0,0|,
|2022,10,12,8,16|2022,10,12,10,26|0,0,0,0,0|,
|2022,10,12,11,48|2022,10,12,17,7|2022,10,12,22,6|,
|2022,10,12,9,51|2022,10,12,12,48|2022,10,12,14,32|,
|2022,10,12,23,38|2022,10,13,7,55|0,0,0,0,0|,
|2022,10,12,20,15|2022,10,12,22,20|0,0,0,0,0|,
|2022,10,12,6,38|2022,10,12,8,35|2022,10,12,10,26|,
|2022,10,12,11,29|2022,10,12,14,5|2022,10,12,16,39|,
|2022,10,12,13,28|2022,10,12,15,30|0,0,0,0,0|,
|2022,10,12,15,45|2022,10,12,18,30|0,0,0,0,0|,
|2022,10,12,8,14|2022,10,12,19,10|0,0,0,0,0|,
|2022,10,12,20,15|2022,10,12,23,2|2022,10,13,8,46|,
|2022,10,12,17,15|2022,10,12,20,25|0,0,0,0,0|,
|2022,10,12,6,24|2022,10,12,9,31|0,0,0,0,0|,
|2022,10,12,19,20|2022,10,12,23,2|2022,10,13,8,46|,
|2022,10,12,7,14|0,0,0,0,0|0,0,0,0,0|,
|2022,10,12,16,56|2022,10,12,19,11|2022,10,12,20,48|,
|2022,10,12,6,30|2022,10,12,9,10|2022,10,12,11,58|,
|2022,10,12,18,4|2022,10,12,20,40|2022,10,12,22,6|,
|2022,10,12,14,20|2022,10,12,17,15|0,0,0,0,0|,
|2022,10,12,16,56|2022,10,12,20,40|2022,10,12,22,6|,
|2022,10,12,16,7|2022,10,12,19,56|2022,10,12,23,58|,
|2022,10,12,7,15|2022,10,12,10,21|2022,10,12,15,30|,
|2022,10,12,7,5|0,0,0,0,0|0,0,0,0,0|,
|2022,10,12,7,15|2022,10,12,9,38|0,0,0,0,0|,
|2022,10,12,15,26|0,0,0,0,0|0,0,0,0,0|,
|2022,10,12,22,25|2022,10,13,7,55|0,0,0,0,0|,
|2022,10,12,13,18|2022,10,12,17,7|0,0,0,0,0|,
|2022,10,12,6,24|2022,10,12,8,56|2022,10,12,10,41|,
|2022,10,12,8,28|2022,10,12,10,45|0,0,0,0,0|,
|2022,10,12,13,28|2022,10,12,15,15|2022,10,12,18,30|,
|2022,10,12,6,38|2022,10,12,8,35|2022,10,12,11,21|,
|2022,10,12,9,5|0,0,0,0,0|0,0,0,0,0|,
|2022,10,12,14,47|2022,10,12,16,50|2022,10,12,22,20|,
|2022,10,12,6,38|2022,10,12,10,41|0,0,0,0,0|,
|2022,10,12,6,30|2022,10,12,11,43|0,0,0,0,0|,
|2022,10,12,14,32|2022,10,12,16,50|0,0,0,0,0|,
|2022,10,12,6,47|2022,10,12,13,13|0,0,0,0,0|,
|2022,10,12,9,55|2022,10,12,12,23|2022,10,12,14,14|,
|2022,10,12,18,4|2022,10,12,21,50|0,0,0,0,0|,
|2022,10,12,15,45|2022,10,12,21,50|0,0,0,0,0|,
|2022,10,12,16,45|2022,10,12,19,10|0,0,0,0,0|,
|2022,10,12,11,0|2022,10,12,13,15|0,0,0,0,0|,
|2022,10,12,10,30|2022,10,12,12,22|2022,10,12,14,53|,
|2022,10,12,11,29|2022,10,12,14,10|0,0,0,0,0|,
|2022,10,12,19,20|2022,10,12,21,50|0,0,0,0,0|,
|2022,10,12,19,19|2022,10,12,21,5|2022,10,12,23,45|,
|2022,10,12,10,40|0,0,0,0,0|0,0,0,0,0|,
|2022,10,12,13,51|2022,10,12,16,57|0,0,0,0,0|,
|2022,10,12,22,15|2022,10,13,5,59|0,0,0,0,0|,
|2022,10,12,21,5|2022,10,13,5,59|0,0,0,0,0|,
|2022,10,12,9,51|2022,10,12,12,10|2022,10,12,13,54|,
|2022,10,12,14,47|2022,10,12,16,50|2022,10,12,19,10|,
|2022,10,12,7,22|2022,10,12,9,31|0,0,0,0,0|,
|2022,10,12,16,56|2022,10,12,18,32|0,0,0,0,0|,
|2022,10,12,18,9|2022,10,12,19,59|0,0,0,0,0||];
flightsSegmentsDuration = [|58,55,0|89,85,0|52,0,0|58,55,0|
53,0,0|93,75,0|61,60,0|89,75,0|
113,119,55|61,78,56|61,60,0|80,56,0|
58,55,0|58,121,105|58,77,54|58,61,52|
61,60,0|58,77,54|56,0,0|58,55,0|
54,0,0|58,124,105|58,86,71|94,72,0|
61,60,0|61,63,0|61,60,0|61,60,0|
52,0,0|61,62,0|52,0,0|53,0,0|
83,85,55|58,55,0|88,74,0|58,77,54|
58,55,0|61,60,0|58,55,0|61,76,64|
58,55,0|61,61,0|61,60,0|58,55,0|
58,77,54|58,90,72|58,55,0|61,60,0|
83,85,55|61,90,73|78,64,0|61,60,0|
61,60,0|61,62,56|61,60,0|58,55,0|
61,62,56|53,0,0|58,71,65|61,90,74|
58,77,54|92,78,0|58,77,54|58,90,72|
61,76,64|52,0,0|61,63,0|53,0,0|
58,55,0|113,105,0|58,86,69|89,85,0|
78,74,60|83,85,55|53,0,0|55,78,60|
83,69,0|61,63,0|61,60,0|65,58,0|
61,81,56|58,55,0|61,60,0|61,60,0|
61,60,0|50,80,55|61,60,0|61,60,0|
80,65,60|53,0,0|58,55,0|61,59,0|
61,59,0|58,90,72|55,78,60|58,55,0|
58,55,0|88,65,0|];
flightsSegmentsAeroline = [|6,2,0|6,6,0|2,0,0|2,2,0|
1,0,0|1,1,0|1,1,0|6,6,0|
2,2,2|1,1,1|1,1,0|1,1,0|
2,2,0|2,2,2|2,2,2|2,2,2|
1,1,0|2,2,2|3,0,0|2,2,0|
3,0,0|2,2,2|2,2,2|2,2,0|
1,1,0|1,1,0|1,1,0|1,1,0|
2,0,0|1,1,0|2,0,0|1,0,0|
2,2,2|2,2,0|1,1,0|2,2,2|
2,2,0|1,1,0|2,2,0|1,1,1|
2,2,0|1,1,0|1,1,0|2,2,0|
2,2,2|2,2,2|2,2,0|1,1,0|
2,2,2|1,1,1|1,1,0|1,1,0|
1,1,0|1,1,1|1,1,0|2,2,0|
1,1,1|1,0,0|2,2,2|1,1,1|
2,2,2|6,6,0|2,2,2|2,2,2|
1,1,1|2,0,0|1,1,0|1,0,0|
2,2,0|2,2,0|2,2,2|6,6,0|
1,1,1|2,2,2|1,0,0|1,1,1|
2,2,0|1,1,0|1,1,0|3,3,0|
1,1,1|2,2,0|1,1,0|1,1,0|
1,1,0|2,2,2|1,1,0|1,1,0|
1,1,1|1,0,0|2,2,0|1,1,0|
1,1,0|2,2,2|1,1,1|2,2,0|
2,2,0|1,1,0|];